\ Model TSP0
\ LP format - for model browsing. Use MPS format to capture full model detail.
Minimize
  493.6972756659692 road(0,_1) + 557.5446170487165 road(0,_2)
   + 430.376579288418 road(0,_3) + 554.3013620766235 road(0,_4)
   + 322.8885256555271 road(0,_5) + 645.1356446515725 road(0,_6)
   + 485.8981374732774 road(0,_7) + 491.5495905806453 road(0,_8)
   + 148.6371420607918 road(0,_9) + 46.8187996428785 road(0,_10)
   + 63.89053137985315 road(0,_11) + 330 road(0,_12)
   + 558.1979935470926 road(0,_13) + 163.367683462795 road(0,_14)
   + 650.8648093114268 road(0,_15) + 48.25971404805462 road(0,_16)
   + 580.9621330172905 road(0,_17) + 336.0148806228677 road(0,_18)
   + 556.9748647829631 road(0,_19) + 135.7239846158371 road(1,_2)
   + 391.8124551363828 road(1,_3) + 60.63827174318213 road(1,_4)
   + 180.0111107681967 road(1,_5) + 418.8138011097533 road(1,_6)
   + 841.2752225045024 road(1,_7) + 434.8287019045546 road(1,_8)
   + 454.2818508371207 road(1,_9) + 499.6328652120475 road(1,_10)
   + 548.555375509164 road(1,_11) + 816.576389568055 road(1,_12)
   + 73.55270219373317 road(1,_13) + 568.0140843324222 road(1,_14)
   + 919.5825139703343 road(1,_15) + 446.1614057714988 road(1,_16)
   + 746.7757360814558 road(1,_17) + 377.4930462935708 road(1,_18)
   + 489.2197870078438 road(1,_19) + 332.0240955111541 road(2,_3)
   + 129.0968628588627 road(2,_4) + 237.4973684064731 road(2,_5)
   + 296.9983164935451 road(2,_6) + 830.3619692640071 road(2,_7)
   + 357.962288516542 road(2,_8) + 482.8923275431077 road(2,_9)
   + 552.5576892958779 road(2,_10) + 603.8294461186868 road(2,_11)
   + 862.0649627493278 road(2,_12) + 89.96110270555825 road(2,_13)
   + 596.560977604134 road(2,_14) + 878.8748488835029 road(2,_15)
   + 513.3078998028376 road(2,_16) + 689.6673111000695 road(2,_17)
   + 351.1723223717951 road(2,_18) + 399.3707550635124 road(2,_19)
   + 429.6905863525521 road(3,_4) + 284.8104632909402 road(3,_5)
   + 230.5124725475826 road(3,_6) + 519.4660720393586 road(3,_7)
   + 65.12296062065974 road(3,_8) + 290.9450119868014 road(3,_9)
   + 398.6477141537375 road(3,_10) + 443.4974633523849 road(3,_11)
   + 643.6178990674514 road(3,_12) + 401.8220999397619 road(3,_13)
   + 374.3006812710872 road(3,_14) + 547.4568476144947 road(3,_15)
   + 407.6530387474132 road(3,_16) + 359.0891254271006 road(3,_17)
   + 94.37160589923221 road(3,_18) + 135.0592462588178 road(3,_19)
   + 239.5349661322956 road(4,_5) + 425.73465914816 road(4,_6)
   + 895.029049807882 road(4,_7) + 466.7986718061653 road(4,_8)
   + 513.0038986206635 road(4,_9) + 560.180328108726 road(4,_10)
   + 609.1732101791739 road(4,_11) + 877.0689824637512 road(4,_12)
   + 39.81205847478876 road(4,_13) + 627.0797397460709 road(4,_14)
   + 966.2944685757028 road(4,_15) + 506.723790639437 road(4,_16)
   + 787.9067203673287 road(4,_17) + 425.2481628414166 road(4,_18)
   + 515.9467026738324 road(4,_19) + 410.3425398371463 road(5,_6)
   + 669.8567010935996 road(5,_7) + 344.0581346226245 road(5,_8)
   + 274.5906043549196 road(5,_9) + 323.3713036124263 road(5,_10)
   + 373.5625784256234 road(5,_11) + 639.153346232342 road(5,_12)
   + 237.4573645941519 road(5,_13) + 388.0463889794621 road(5,_14)
   + 765.4880795936668 road(5,_15) + 277.272429209974 road(5,_16)
   + 610.9811781061673 road(5,_17) + 234.5229199886442 road(5,_18)
   + 410.9939172299269 road(5,_19) + 721.5906041516894 road(6,_7)
   + 192.9170806331052 road(6,_8) + 515.139786854015 road(6,_9)
   + 618.8570109484097 road(6,_10) + 666.4487977331792 road(6,_11)
   + 874.0823759806624 road(6,_12) + 386.9431482789171 road(6,_13)
   + 604.4145928086118 road(6,_14) + 702.3140323245721 road(6,_15)
   + 615.1723335781609 road(6,_16) + 494.0374479733292 road(6,_17)
   + 318.2483307104689 road(6,_18) + 176.2299634000983 road(6,_19)
   + 532.2593352868506 road(7,_8) + 412.0436870041816 road(7,_9)
   + 443.4512374545819 road(7,_10) + 431.1020760794362 road(7,_11)
   + 351.0512783056059 road(7,_12) + 879.0096700264452 road(7,_13)
   + 325.8711401766042 road(7,_14) + 204.0392119177096 road(7,_15)
   + 516.8868348100965 road(7,_16) + 297.0690155502589 road(7,_17)
   + 479.2128963206228 road(7,_18) + 550.236312869298 road(7,_19)
   + 348.9412558010302 road(8,_9) + 457.9574216016157 road(8,_10)
   + 501.1037816660337 road(8,_11) + 687.9542135927361 road(8,_12)
   + 435.5708897527474 road(8,_13) + 423.8914955504533 road(8,_14)
   + 535.4213294219796 road(8,_15) + 470.6846077789245 road(8,_16)
   + 335.8719994283537 road(8,_17) + 156.6045976336582 road(8,_18)
   + 70 road(8,_19) + 109.7861557756715 road(9,_10)
   + 152.5549081478534 road(9,_11) + 381.4616625560162 road(9,_12)
   + 506.353631368434 road(9,_13) + 114.6298390472568 road(9,_14)
   + 545.4429392704611 road(9,_15) + 144.3606594609487 road(9,_16)
   + 446.0605340085581 road(9,_17) + 197.8004044485248 road(9,_18)
   + 412.0436870041816 road(9,_19) + 51.478150704935 road(10,_11)
   + 317.0678160898706 road(10,_12) + 560.7575233556836 road(10,_13)
   + 118.5622199522259 road(10,_14) + 605.0595012062863 road(10,_15)
   + 74.94664769020693 road(10,_16) + 534.5175394690057 road(10,_17)
   + 304.5816803420718 road(10,_18) + 521.6943549627501 road(10,_19)
   + 269.6701689100966 road(11,_12) + 610.7118796945086 road(11,_13)
   + 120.0708124399931 road(11,_14) + 604.2656700491929 road(11,_15)
   + 109.89540481749 road(11,_16) + 551.4607873638886 road(11,_17)
   + 350.1428280002319 road(11,_18) + 563.0674915141168 road(11,_19)
   + 876.5300907555884 road(12,_13) + 273.6220020393097 road(12,_14)
   + 555.0900827793629 road(12,_15) + 378.033067336708 road(12,_16)
   + 599.9641655965796 road(12,_17) + 561.12921862972 road(12,_18)
   + 736.1256686191564 road(12,_19) + 620.9363896567828 road(13,_14)
   + 943.0429470602068 road(13,_15) + 511.3531069623025 road(13,_16)
   + 760.8468965567251 road(13,_17) + 404.5207040436868 road(13,_18)
   + 482.2468247692254 road(13,_19) + 487.7540363748926 road(14,_15)
   + 191.049731745428 road(14,_16) + 432.7609039643022 road(14,_17)
   + 288.4250335875858 road(14,_18) + 478.9404973480527 road(14,_19)
   + 673.0854329132372 road(15,_16) + 209.2892734948449 road(15,_17)
   + 542.0894760092655 road(15,_18) + 526.8548187119484 road(15,_19)
   + 588.865009998047 road(16,_17) + 314.0843835659455 road(16,_18)
   + 538 road(16,_19) + 376.9681684174408 road(17,_18)
   + 319.640422975568 road(17,_19) + 224.5551157288562 road(18,_19)
Subject To
 c1_0(18,_19): road(0,_1) + road(0,_2) + road(0,_3) + road(0,_4)
   + road(0,_5) + road(0,_6) + road(0,_7) + road(0,_8) + road(0,_9)
   + road(0,_10) + road(0,_11) + road(0,_12) + road(0,_13) + road(0,_14)
   + road(0,_15) + road(0,_16) + road(0,_17) + road(0,_18) + road(0,_19)
   = 2
 c1_1(18,_19): road(0,_1) + road(1,_2) + road(1,_3) + road(1,_4)
   + road(1,_5) + road(1,_6) + road(1,_7) + road(1,_8) + road(1,_9)
   + road(1,_10) + road(1,_11) + road(1,_12) + road(1,_13) + road(1,_14)
   + road(1,_15) + road(1,_16) + road(1,_17) + road(1,_18) + road(1,_19)
   = 2
 c1_2(18,_19): road(0,_2) + road(1,_2) + road(2,_3) + road(2,_4)
   + road(2,_5) + road(2,_6) + road(2,_7) + road(2,_8) + road(2,_9)
   + road(2,_10) + road(2,_11) + road(2,_12) + road(2,_13) + road(2,_14)
   + road(2,_15) + road(2,_16) + road(2,_17) + road(2,_18) + road(2,_19)
   = 2
 c1_3(18,_19): road(0,_3) + road(1,_3) + road(2,_3) + road(3,_4)
   + road(3,_5) + road(3,_6) + road(3,_7) + road(3,_8) + road(3,_9)
   + road(3,_10) + road(3,_11) + road(3,_12) + road(3,_13) + road(3,_14)
   + road(3,_15) + road(3,_16) + road(3,_17) + road(3,_18) + road(3,_19)
   = 2
 c1_4(18,_19): road(0,_4) + road(1,_4) + road(2,_4) + road(3,_4)
   + road(4,_5) + road(4,_6) + road(4,_7) + road(4,_8) + road(4,_9)
   + road(4,_10) + road(4,_11) + road(4,_12) + road(4,_13) + road(4,_14)
   + road(4,_15) + road(4,_16) + road(4,_17) + road(4,_18) + road(4,_19)
   = 2
 c1_5(18,_19): road(0,_5) + road(1,_5) + road(2,_5) + road(3,_5)
   + road(4,_5) + road(5,_6) + road(5,_7) + road(5,_8) + road(5,_9)
   + road(5,_10) + road(5,_11) + road(5,_12) + road(5,_13) + road(5,_14)
   + road(5,_15) + road(5,_16) + road(5,_17) + road(5,_18) + road(5,_19)
   = 2
 c1_6(18,_19): road(0,_6) + road(1,_6) + road(2,_6) + road(3,_6)
   + road(4,_6) + road(5,_6) + road(6,_7) + road(6,_8) + road(6,_9)
   + road(6,_10) + road(6,_11) + road(6,_12) + road(6,_13) + road(6,_14)
   + road(6,_15) + road(6,_16) + road(6,_17) + road(6,_18) + road(6,_19)
   = 2
 c1_7(18,_19): road(0,_7) + road(1,_7) + road(2,_7) + road(3,_7)
   + road(4,_7) + road(5,_7) + road(6,_7) + road(7,_8) + road(7,_9)
   + road(7,_10) + road(7,_11) + road(7,_12) + road(7,_13) + road(7,_14)
   + road(7,_15) + road(7,_16) + road(7,_17) + road(7,_18) + road(7,_19)
   = 2
 c1_8(18,_19): road(0,_8) + road(1,_8) + road(2,_8) + road(3,_8)
   + road(4,_8) + road(5,_8) + road(6,_8) + road(7,_8) + road(8,_9)
   + road(8,_10) + road(8,_11) + road(8,_12) + road(8,_13) + road(8,_14)
   + road(8,_15) + road(8,_16) + road(8,_17) + road(8,_18) + road(8,_19)
   = 2
 c1_9(18,_19): road(0,_9) + road(1,_9) + road(2,_9) + road(3,_9)
   + road(4,_9) + road(5,_9) + road(6,_9) + road(7,_9) + road(8,_9)
   + road(9,_10) + road(9,_11) + road(9,_12) + road(9,_13) + road(9,_14)
   + road(9,_15) + road(9,_16) + road(9,_17) + road(9,_18) + road(9,_19)
   = 2
 c1_10(18,_19): road(0,_10) + road(1,_10) + road(2,_10) + road(3,_10)
   + road(4,_10) + road(5,_10) + road(6,_10) + road(7,_10) + road(8,_10)
   + road(9,_10) + road(10,_11) + road(10,_12) + road(10,_13)
   + road(10,_14) + road(10,_15) + road(10,_16) + road(10,_17)
   + road(10,_18) + road(10,_19) = 2
 c1_11(18,_19): road(0,_11) + road(1,_11) + road(2,_11) + road(3,_11)
   + road(4,_11) + road(5,_11) + road(6,_11) + road(7,_11) + road(8,_11)
   + road(9,_11) + road(10,_11) + road(11,_12) + road(11,_13)
   + road(11,_14) + road(11,_15) + road(11,_16) + road(11,_17)
   + road(11,_18) + road(11,_19) = 2
 c1_12(18,_19): road(0,_12) + road(1,_12) + road(2,_12) + road(3,_12)
   + road(4,_12) + road(5,_12) + road(6,_12) + road(7,_12) + road(8,_12)
   + road(9,_12) + road(10,_12) + road(11,_12) + road(12,_13)
   + road(12,_14) + road(12,_15) + road(12,_16) + road(12,_17)
   + road(12,_18) + road(12,_19) = 2
 c1_13(18,_19): road(0,_13) + road(1,_13) + road(2,_13) + road(3,_13)
   + road(4,_13) + road(5,_13) + road(6,_13) + road(7,_13) + road(8,_13)
   + road(9,_13) + road(10,_13) + road(11,_13) + road(12,_13)
   + road(13,_14) + road(13,_15) + road(13,_16) + road(13,_17)
   + road(13,_18) + road(13,_19) = 2
 c1_14(18,_19): road(0,_14) + road(1,_14) + road(2,_14) + road(3,_14)
   + road(4,_14) + road(5,_14) + road(6,_14) + road(7,_14) + road(8,_14)
   + road(9,_14) + road(10,_14) + road(11,_14) + road(12,_14)
   + road(13,_14) + road(14,_15) + road(14,_16) + road(14,_17)
   + road(14,_18) + road(14,_19) = 2
 c1_15(18,_19): road(0,_15) + road(1,_15) + road(2,_15) + road(3,_15)
   + road(4,_15) + road(5,_15) + road(6,_15) + road(7,_15) + road(8,_15)
   + road(9,_15) + road(10,_15) + road(11,_15) + road(12,_15)
   + road(13,_15) + road(14,_15) + road(15,_16) + road(15,_17)
   + road(15,_18) + road(15,_19) = 2
 c1_16(18,_19): road(0,_16) + road(1,_16) + road(2,_16) + road(3,_16)
   + road(4,_16) + road(5,_16) + road(6,_16) + road(7,_16) + road(8,_16)
   + road(9,_16) + road(10,_16) + road(11,_16) + road(12,_16)
   + road(13,_16) + road(14,_16) + road(15,_16) + road(16,_17)
   + road(16,_18) + road(16,_19) = 2
 c1_17(18,_19): road(0,_17) + road(1,_17) + road(2,_17) + road(3,_17)
   + road(4,_17) + road(5,_17) + road(6,_17) + road(7,_17) + road(8,_17)
   + road(9,_17) + road(10,_17) + road(11,_17) + road(12,_17)
   + road(13,_17) + road(14,_17) + road(15,_17) + road(16,_17)
   + road(17,_18) + road(17,_19) = 2
 c1_18(18,_19): road(0,_18) + road(1,_18) + road(2,_18) + road(3,_18)
   + road(4,_18) + road(5,_18) + road(6,_18) + road(7,_18) + road(8,_18)
   + road(9,_18) + road(10,_18) + road(11,_18) + road(12,_18)
   + road(13,_18) + road(14,_18) + road(15,_18) + road(16,_18)
   + road(17,_18) + road(18,_19) = 2
 c1_19(18,_19): road(0,_19) + road(1,_19) + road(2,_19) + road(3,_19)
   + road(4,_19) + road(5,_19) + road(6,_19) + road(7,_19) + road(8,_19)
   + road(9,_19) + road(10,_19) + road(11,_19) + road(12,_19)
   + road(13,_19) + road(14,_19) + road(15,_19) + road(16,_19)
   + road(17,_19) + road(18,_19) = 2
 R20: road(7,_15) + road(7,_17) + road(15,_17) <= 2
 R21: road(1,_2) + road(1,_4) + road(1,_13) + road(2,_4) + road(2,_13)
   + road(4,_13) <= 3
 R22: road(1,_2) + road(1,_4) + road(1,_5) + road(1,_13) + road(2,_4)
   + road(2,_5) + road(2,_13) + road(4,_5) + road(4,_13) + road(5,_13)
   <= 4
Bounds
 road(0,_1) <= 1
 road(0,_2) <= 1
 road(0,_3) <= 1
 road(0,_4) <= 1
 road(0,_5) <= 1
 road(0,_6) <= 1
 road(0,_7) <= 1
 road(0,_8) <= 1
 road(0,_9) <= 1
 road(0,_10) <= 1
 road(0,_11) <= 1
 road(0,_12) <= 1
 road(0,_13) <= 1
 road(0,_14) <= 1
 road(0,_15) <= 1
 road(0,_16) <= 1
 road(0,_17) <= 1
 road(0,_18) <= 1
 road(0,_19) <= 1
 road(1,_2) <= 1
 road(1,_3) <= 1
 road(1,_4) <= 1
 road(1,_5) <= 1
 road(1,_6) <= 1
 road(1,_7) <= 1
 road(1,_8) <= 1
 road(1,_9) <= 1
 road(1,_10) <= 1
 road(1,_11) <= 1
 road(1,_12) <= 1
 road(1,_13) <= 1
 road(1,_14) <= 1
 road(1,_15) <= 1
 road(1,_16) <= 1
 road(1,_17) <= 1
 road(1,_18) <= 1
 road(1,_19) <= 1
 road(2,_3) <= 1
 road(2,_4) <= 1
 road(2,_5) <= 1
 road(2,_6) <= 1
 road(2,_7) <= 1
 road(2,_8) <= 1
 road(2,_9) <= 1
 road(2,_10) <= 1
 road(2,_11) <= 1
 road(2,_12) <= 1
 road(2,_13) <= 1
 road(2,_14) <= 1
 road(2,_15) <= 1
 road(2,_16) <= 1
 road(2,_17) <= 1
 road(2,_18) <= 1
 road(2,_19) <= 1
 road(3,_4) <= 1
 road(3,_5) <= 1
 road(3,_6) <= 1
 road(3,_7) <= 1
 road(3,_8) <= 1
 road(3,_9) <= 1
 road(3,_10) <= 1
 road(3,_11) <= 1
 road(3,_12) <= 1
 road(3,_13) <= 1
 road(3,_14) <= 1
 road(3,_15) <= 1
 road(3,_16) <= 1
 road(3,_17) <= 1
 road(3,_18) <= 1
 road(3,_19) <= 1
 road(4,_5) <= 1
 road(4,_6) <= 1
 road(4,_7) <= 1
 road(4,_8) <= 1
 road(4,_9) <= 1
 road(4,_10) <= 1
 road(4,_11) <= 1
 road(4,_12) <= 1
 road(4,_13) <= 1
 road(4,_14) <= 1
 road(4,_15) <= 1
 road(4,_16) <= 1
 road(4,_17) <= 1
 road(4,_18) <= 1
 road(4,_19) <= 1
 road(5,_6) <= 1
 road(5,_7) <= 1
 road(5,_8) <= 1
 road(5,_9) <= 1
 road(5,_10) <= 1
 road(5,_11) <= 1
 road(5,_12) <= 1
 road(5,_13) <= 1
 road(5,_14) <= 1
 road(5,_15) <= 1
 road(5,_16) <= 1
 road(5,_17) <= 1
 road(5,_18) <= 1
 road(5,_19) <= 1
 road(6,_7) <= 1
 road(6,_8) <= 1
 road(6,_9) <= 1
 road(6,_10) <= 1
 road(6,_11) <= 1
 road(6,_12) <= 1
 road(6,_13) <= 1
 road(6,_14) <= 1
 road(6,_15) <= 1
 road(6,_16) <= 1
 road(6,_17) <= 1
 road(6,_18) <= 1
 road(6,_19) <= 1
 road(7,_8) <= 1
 road(7,_9) <= 1
 road(7,_10) <= 1
 road(7,_11) <= 1
 road(7,_12) <= 1
 road(7,_13) <= 1
 road(7,_14) <= 1
 road(7,_15) <= 1
 road(7,_16) <= 1
 road(7,_17) <= 1
 road(7,_18) <= 1
 road(7,_19) <= 1
 road(8,_9) <= 1
 road(8,_10) <= 1
 road(8,_11) <= 1
 road(8,_12) <= 1
 road(8,_13) <= 1
 road(8,_14) <= 1
 road(8,_15) <= 1
 road(8,_16) <= 1
 road(8,_17) <= 1
 road(8,_18) <= 1
 road(8,_19) <= 1
 road(9,_10) <= 1
 road(9,_11) <= 1
 road(9,_12) <= 1
 road(9,_13) <= 1
 road(9,_14) <= 1
 road(9,_15) <= 1
 road(9,_16) <= 1
 road(9,_17) <= 1
 road(9,_18) <= 1
 road(9,_19) <= 1
 road(10,_11) <= 1
 road(10,_12) <= 1
 road(10,_13) <= 1
 road(10,_14) <= 1
 road(10,_15) <= 1
 road(10,_16) <= 1
 road(10,_17) <= 1
 road(10,_18) <= 1
 road(10,_19) <= 1
 road(11,_12) <= 1
 road(11,_13) <= 1
 road(11,_14) <= 1
 road(11,_15) <= 1
 road(11,_16) <= 1
 road(11,_17) <= 1
 road(11,_18) <= 1
 road(11,_19) <= 1
 road(12,_13) <= 1
 road(12,_14) <= 1
 road(12,_15) <= 1
 road(12,_16) <= 1
 road(12,_17) <= 1
 road(12,_18) <= 1
 road(12,_19) <= 1
 road(13,_14) <= 1
 road(13,_15) <= 1
 road(13,_16) <= 1
 road(13,_17) <= 1
 road(13,_18) <= 1
 road(13,_19) <= 1
 road(14,_15) <= 1
 road(14,_16) <= 1
 road(14,_17) <= 1
 road(14,_18) <= 1
 road(14,_19) <= 1
 road(15,_16) <= 1
 road(15,_17) <= 1
 road(15,_18) <= 1
 road(15,_19) <= 1
 road(16,_17) <= 1
 road(16,_18) <= 1
 road(16,_19) <= 1
 road(17,_18) <= 1
 road(17,_19) <= 1
 road(18,_19) <= 1
End
